c 3 - XORSAT
p cnf 50 200
-11 -31 -46 0
-11 31 46 0
11 -31 46 0
11 31 -46 0
-43 -50 -38 0
-43 50 38 0
43 -50 38 0
43 50 -38 0
-8 -18 -15 0
-8 18 15 0
8 -18 15 0
8 18 -15 0
-25 -28 -15 0
-25 28 15 0
25 -28 15 0
25 28 -15 0
1 7 32 0
-1 -7 32 0
-1 7 -32 0
1 -7 -32 0
13 14 4 0
-13 -14 4 0
-13 14 -4 0
13 -14 -4 0
1 17 19 0
-1 -17 19 0
-1 17 -19 0
1 -17 -19 0
-6 -13 -20 0
-6 13 20 0
6 -13 20 0
6 13 -20 0
3 9 27 0
-3 -9 27 0
-3 9 -27 0
3 -9 -27 0
12 39 42 0
-12 -39 42 0
-12 39 -42 0
12 -39 -42 0
25 33 46 0
-25 -33 46 0
-25 33 -46 0
25 -33 -46 0
7 23 36 0
-7 -23 36 0
-7 23 -36 0
7 -23 -36 0
9 22 26 0
-9 -22 26 0
-9 22 -26 0
9 -22 -26 0
10 23 27 0
-10 -23 27 0
-10 23 -27 0
10 -23 -27 0
-21 -24 -42 0
-21 24 42 0
21 -24 42 0
21 24 -42 0
12 19 48 0
-12 -19 48 0
-12 19 -48 0
12 -19 -48 0
34 35 41 0
-34 -35 41 0
-34 35 -41 0
34 -35 -41 0
-2 -33 -34 0
-2 33 34 0
2 -33 34 0
2 33 -34 0
-3 -32 -38 0
-3 32 38 0
3 -32 38 0
3 32 -38 0
5 18 21 0
-5 -18 21 0
-5 18 -21 0
5 -18 -21 0
2 22 37 0
-2 -22 37 0
-2 22 -37 0
2 -22 -37 0
-7 -11 -17 0
-7 11 17 0
7 -11 17 0
7 11 -17 0
9 20 39 0
-9 -20 39 0
-9 20 -39 0
9 -20 -39 0
-14 -17 -28 0
-14 17 28 0
14 -17 28 0
14 17 -28 0
-4 -35 -40 0
-4 35 40 0
4 -35 40 0
4 35 -40 0
-41 -44 -50 0
-41 44 50 0
41 -44 50 0
41 44 -50 0
-6 -47 -48 0
-6 47 48 0
6 -47 48 0
6 47 -48 0
41 47 49 0
-41 -47 49 0
-41 47 -49 0
41 -47 -49 0
29 30 39 0
-29 -30 39 0
-29 30 -39 0
29 -30 -39 0
5 16 29 0
-5 -16 29 0
-5 16 -29 0
5 -16 -29 0
-18 -24 -35 0
-18 24 35 0
18 -24 35 0
18 24 -35 0
-5 -28 -50 0
-5 28 50 0
5 -28 50 0
5 28 -50 0
-26 -43 -45 0
-26 43 45 0
26 -43 45 0
26 43 -45 0
-14 -48 -31 0
-14 48 31 0
14 -48 31 0
14 48 -31 0
4 30 37 0
-4 -30 37 0
-4 30 -37 0
4 -30 -37 0
13 21 25 0
-13 -21 25 0
-13 21 -25 0
13 -21 -25 0
15 38 47 0
-15 -38 47 0
-15 38 -47 0
15 -38 -47 0
-6 -11 -37 0
-6 11 37 0
6 -11 37 0
6 11 -37 0
27 44 45 0
-27 -44 45 0
-27 44 -45 0
27 -44 -45 0
-29 -45 -49 0
-29 45 49 0
29 -45 49 0
29 45 -49 0
-8 -12 -16 0
-8 12 16 0
8 -12 16 0
8 12 -16 0
-36 -40 -46 0
-36 40 46 0
36 -40 46 0
36 40 -46 0
-10 -30 -43 0
-10 30 43 0
10 -30 43 0
10 30 -43 0
19 22 33 0
-19 -22 33 0
-19 22 -33 0
19 -22 -33 0
31 32 34 0
-31 -32 34 0
-31 32 -34 0
31 -32 -34 0
10 20 26 0
-10 -20 26 0
-10 20 -26 0
10 -20 -26 0
-16 -23 -24 0
-16 23 24 0
16 -23 24 0
16 23 -24 0
-1 -2 -8 0
-1 2 8 0
1 -2 8 0
1 2 -8 0
3 42 49 0
-3 -42 49 0
-3 42 -49 0
3 -42 -49 0
-36 -40 -44 0
-36 40 44 0
36 -40 44 0
36 40 -44 0
